CPXPARAM_Emphasis_MIP#P8#2#7.003375#1.000000
CPXPARAM_Emphasis_MIP#P8#3#3.466897#0.495032
CPXPARAM_Emphasis_MIP#P8#4#6.532505#0.932765
CPXPARAM_Emphasis_MIP#P8#5#2.578969#0.368247
CPXPARAM_MIP_Cuts_MIRCut#P20#1#3.560822#0.508444
CPXPARAM_MIP_Cuts_MIRCut#P20#2#1.241718#0.177303
CPXPARAM_MIP_Strategy_NodeSelect#P39#1#5.068345#0.723700
CPXPARAM_MIP_Strategy_NodeSelect#P39#2#4.225103#0.603295
CPXPARAM_MIP_Strategy_NodeSelect#P39#3#1.411703#0.201575
